20	100	100	100
46	97	100
61	94	100
49	74	100
1	55	100
6	77	100
19	13	100
42	31	100
73	15	100
83	29	100
6	48	100
12	15	100
40	44	100
74	77	100
23	66	100
29	24	100
12	58	100
81	14	100
85	64	100
93	44	100
36	88	100
